NAME: aa10.tsp
TYPE: TSP
COMMENT: User-generated TSP file
DIMENSION: 10
EDGE_WEIGHT_TYPE: LOWER_DIAG_ROW
EDGE_WEIGHT_SECTION
0.0
86.0
0.0
125.0
79.0
0.0
114.0
81.0
17.0
0.0
85.0
121.0
97.0
80.0
0.0
80.0
28.0
56.0
55.0
95.0
0.0
22.0
92.0
115.0
103.0
63.0
79.0
0.0
72.0
18.0
92.0
91.0
118.0
36.0
81.0
0.0
117.0
66.0
13.0
24.0
99.0
45.0
110.0
79.0
0.0
97.0
76.0
34.0
19.0
64.0
48.0
84.0
83.0
35.0
0.0
EOF

